p cnf 20 22
-1 18 0 
-2 18 0 
-3 18 0 
-4 18 0 
-5 18 0 
-1 -6 18 0 
-7 -1 18 0 
-8 -9 18 0 
-10 18 0 
-11 -1 19 0 
-10 -12 20 0 
-9 -1 20 0 
-9 19 0 
-13 -12 20 0 
-14 -1 19 0 
-10 20 0 
-11 -15 18 0 
-1 -11 18 0 
-1 -16 18 0 
-7 -17 -1 18 0 
-16 18 0 
-1 20 0 
